30
1 0 4
2 0 4
3 0 2
3 1 5
4 1 6
4 2 1
4 3 2
5 1 6
5 2 8
5 4 9
6 0 7
6 2 2
6 3 6
6 4 8
6 5 2
7 0 3
7 2 7
7 3 8
8 0 9
8 2 8
8 3 4
8 5 9
8 6 6
8 7 6
9 0 7
9 2 5
9 3 8
9 8 3
10 0 9
10 1 8
10 2 4
10 4 3
10 7 9
10 9 9
11 4 8
11 6 3
11 9 6
11 10 6
12 0 6
12 1 8
12 4 5
12 5 6
12 6 7
12 7 5
12 8 3
12 9 8
12 11 4
13 0 5
13 3 1
13 4 7
13 5 2
13 7 1
13 9 1
13 10 4
13 12 8
14 3 4
14 5 9
14 6 7
14 9 9
14 10 7
14 11 3
14 12 3
14 13 8
15 1 3
15 3 7
15 4 8
15 5 4
15 7 1
15 8 3
15 10 9
15 12 8
15 14 8
16 1 9
16 11 3
16 12 7
16 13 4
16 14 6
17 1 5
17 4 3
17 6 5
17 7 1
17 8 4
17 12 4
17 14 7
17 15 2
17 16 9
18 4 3
18 9 9
18 12 4
18 14 3
18 17 8
19 1 1
19 7 4
19 8 8
19 9 8
19 10 2
19 11 3
19 15 3
19 16 3
19 17 2
19 18 2
20 0 4
20 1 2
20 4 6
20 5 4
20 7 6
20 10 7
20 12 7
20 16 6
20 17 3
20 19 4
21 0 7
21 1 9
21 2 7
21 3 1
21 4 4
21 5 7
21 6 9
21 7 8
21 9 7
21 13 9
21 16 6
21 20 2
22 1 1
22 3 7
22 4 6
22 5 9
22 6 9
22 8 2
22 9 8
22 11 9
22 13 4
22 17 7
23 1 2
23 2 1
23 3 4
23 5 9
23 6 2
23 7 1
23 8 8
23 9 5
23 10 7
23 14 5
23 15 7
23 20 1
24 3 8
24 4 1
24 9 9
24 11 3
24 12 3
24 13 4
24 14 1
24 19 6
24 20 6
24 21 9
25 1 1
25 3 9
25 7 4
25 8 3
25 9 7
25 11 2
25 13 9
25 15 9
25 16 6
25 17 6
25 18 7
25 19 2
25 20 1
25 22 8
25 23 9
26 0 1
26 5 5
26 9 1
26 10 8
26 12 5
26 13 8
26 15 9
26 16 3
26 17 9
26 19 5
26 22 9
26 23 9
26 25 5
27 3 1
27 6 7
27 7 2
27 8 3
27 9 7
27 11 9
27 16 2
27 18 9
27 19 5
27 21 9
27 22 9
27 23 7
27 26 4
28 0 6
28 1 9
28 3 8
28 4 9
28 6 3
28 10 6
28 11 9
28 12 1
28 13 9
28 16 2
28 19 8
28 21 2
28 22 7
28 24 3
28 25 4
28 27 7
29 0 5
29 1 3
29 2 9
29 4 7
29 5 6
29 10 5
29 12 9
29 14 1
29 17 4
29 18 4
29 20 4
29 22 6
29 27 2
